# Solution for model MIP
# Objective value = -1.1562403716177099e+02
O_0_w0_r0 0
O_0_w0_r1 0
O_0_w0_r2 0
O_0_w0_r3 0
O_0_w0_r4 0
O_0_w1_r0 0
O_0_w1_r1 0
O_0_w1_r2 0
O_0_w1_r3 0
O_0_w1_r4 0
O_0_w2_r0 0
O_0_w2_r1 0
O_0_w2_r2 0
O_0_w2_r3 0
O_0_w2_r4 0
O_0_w3_r0 0
O_0_w3_r1 0
O_0_w3_r2 0
O_0_w3_r3 0
O_0_w3_r4 0
O_0_w4_r0 0
O_0_w4_r1 0
O_0_w4_r2 0
O_0_w4_r3 0
O_0_w4_r4 0
O_1_w0_r0 0
O_1_w0_r1 0
O_1_w0_r2 0
O_1_w0_r3 0
O_1_w0_r4 0
O_1_w1_r0 0
O_1_w1_r1 0
O_1_w1_r2 0
O_1_w1_r3 0
O_1_w1_r4 0
O_1_w2_r0 0
O_1_w2_r1 0
O_1_w2_r2 0
O_1_w2_r3 0
O_1_w2_r4 0
O_1_w3_r0 0
O_1_w3_r1 0
O_1_w3_r2 0
O_1_w3_r3 0
O_1_w3_r4 0
O_1_w4_r0 0
O_1_w4_r1 0
O_1_w4_r2 0
O_1_w4_r3 0
O_1_w4_r4 0
O_2_w0_r0 0
O_2_w0_r1 0
O_2_w0_r2 0
O_2_w0_r3 0
O_2_w0_r4 0
O_2_w1_r0 0
O_2_w1_r1 0
O_2_w1_r2 0
O_2_w1_r3 0
O_2_w1_r4 0
O_2_w2_r0 0
O_2_w2_r1 0
O_2_w2_r2 0
O_2_w2_r3 0
O_2_w2_r4 0
O_2_w3_r0 0
O_2_w3_r1 0
O_2_w3_r2 0
O_2_w3_r3 0
O_2_w3_r4 0
O_2_w4_r0 0
O_2_w4_r1 0
O_2_w4_r2 0
O_2_w4_r3 0
O_2_w4_r4 0
O_3_w0_r0 0
O_3_w0_r1 0
O_3_w0_r2 0
O_3_w0_r3 0
O_3_w0_r4 0
O_3_w1_r0 0
O_3_w1_r1 0
O_3_w1_r2 0
O_3_w1_r3 0
O_3_w1_r4 0
O_3_w2_r0 0
O_3_w2_r1 0
O_3_w2_r2 0
O_3_w2_r3 0
O_3_w2_r4 0
O_3_w3_r0 0
O_3_w3_r1 0
O_3_w3_r2 0
O_3_w3_r3 0
O_3_w3_r4 0
O_3_w4_r0 0
O_3_w4_r1 0
O_3_w4_r2 0
O_3_w4_r3 0
O_3_w4_r4 0
O_4_w0_r0 0
O_4_w0_r1 0
O_4_w0_r2 0
O_4_w0_r3 0
O_4_w0_r4 0
O_4_w1_r0 0
O_4_w1_r1 0
O_4_w1_r2 0
O_4_w1_r3 0
O_4_w1_r4 0
O_4_w2_r0 0
O_4_w2_r1 0
O_4_w2_r2 0
O_4_w2_r3 0
O_4_w2_r4 0
O_4_w3_r0 0
O_4_w3_r1 0
O_4_w3_r2 0
O_4_w3_r3 0
O_4_w3_r4 0
O_4_w4_r0 0
O_4_w4_r1 0
O_4_w4_r2 0
O_4_w4_r3 0
O_4_w4_r4 0
q_s0 2.3952631816404799e-01
q_s1 3.7336564672507497e-02
q_s2 9.0725203585257860e-02
q_s3 5.7239404800936466e-01
q_s4 6.0017865568821965e-02
theta -5.4076245772704581e+01
z_w0_k0_m0 1.2019095487260345e-01
z_w0_k0_m1 8.8088550517075093e-01
z_w0_k1_m0 1.2019095487260345e-01
z_w0_k1_m1 8.8088550517075093e-01
z_w0_k2_m0 1.2019095487260345e-01
z_w0_k2_m1 8.8088550517075093e-01
z_w0_k3_m0 1.2019095487260345e-01
z_w0_k3_m1 8.8088550517075093e-01
z_w0_k4_m0 1.2019095487260345e-01
z_w0_k4_m1 8.8088550517075093e-01
z_w1_k0_m0 1.2019095487260345e-01
z_w1_k0_m1 8.8088550517075093e-01
z_w1_k1_m0 1.2019095487260345e-01
z_w1_k1_m1 8.8088550517075093e-01
z_w1_k2_m0 1.2019095487260345e-01
z_w1_k2_m1 8.8088550517075093e-01
z_w1_k3_m0 1.2019095487260345e-01
z_w1_k3_m1 8.8088550517075093e-01
z_w1_k4_m0 9.4015550783672397e-01
z_w1_k4_m1 9.1781725566458272e-01
z_w2_k0_m0 9.6336297711876373e-01
z_w2_k0_m1 9.6336297711876373e-01
z_w2_k1_m0 9.7195215468220708e-01
z_w2_k1_m1 9.7195215468220719e-01
z_w2_k2_m0 9.6191813677978544e-01
z_w2_k2_m1 9.6191813677978555e-01
z_w2_k3_m0 9.0771971711142574e-01
z_w2_k3_m1 9.0771971711142574e-01
z_w2_k4_m0 9.1781725566458272e-01
z_w2_k4_m1 9.2576348537952446e-01
z_w3_k0_m0 9.6336297711876373e-01
z_w3_k0_m1 9.6336297711876373e-01
z_w3_k1_m0 9.7195215468220697e-01
z_w3_k1_m1 9.7195215468220719e-01
z_w3_k2_m0 9.6191813677978533e-01
z_w3_k2_m1 9.6191813677978555e-01
z_w3_k3_m0 9.0771971711142574e-01
z_w3_k3_m1 9.0771971711142585e-01
z_w3_k4_m0 9.1781725566458261e-01
z_w3_k4_m1 9.2576348537952313e-01
z_w4_k0_m0 9.6336297711876362e-01
z_w4_k0_m1 9.6336297711876362e-01
z_w4_k1_m0 9.7195215468220719e-01
z_w4_k1_m1 9.7195215468220730e-01
z_w4_k2_m0 9.6191813677978555e-01
z_w4_k2_m1 9.6191813677978544e-01
z_w4_k3_m0 9.0771971711142574e-01
z_w4_k3_m1 9.0771971711142574e-01
z_w4_k4_m0 1.2019095487260345e-01
z_w4_k4_m1 8.8088550517075093e-01
pi_w0_t0_k0 1
pi_w0_t0_k1 1
pi_w0_t0_k2 1
pi_w0_t0_k3 1
pi_w0_t0_k4 1
pi_w0_t1_k0 0
pi_w0_t1_k1 0
pi_w0_t1_k2 0
pi_w0_t1_k3 0
pi_w0_t1_k4 0
pi_w0_t2_k0 0
pi_w0_t2_k1 0
pi_w0_t2_k2 0
pi_w0_t2_k3 0
pi_w0_t2_k4 0
pi_w0_t3_k0 0
pi_w0_t3_k1 0
pi_w0_t3_k2 0
pi_w0_t3_k3 0
pi_w0_t3_k4 0
pi_w0_t4_k0 0
pi_w0_t4_k1 0
pi_w0_t4_k2 0
pi_w0_t4_k3 0
pi_w0_t4_k4 0
pi_w0_t5_k0 0
pi_w0_t5_k1 0
pi_w0_t5_k2 0
pi_w0_t5_k3 0
pi_w0_t5_k4 0
pi_w0_t6_k0 0
pi_w0_t6_k1 0
pi_w0_t6_k2 0
pi_w0_t6_k3 0
pi_w0_t6_k4 0
pi_w0_t7_k0 0
pi_w0_t7_k1 0
pi_w0_t7_k2 0
pi_w0_t7_k3 0
pi_w0_t7_k4 0
pi_w0_t8_k0 0
pi_w0_t8_k1 0
pi_w0_t8_k2 0
pi_w0_t8_k3 0
pi_w0_t8_k4 0
pi_w0_t9_k0 0
pi_w0_t9_k1 0
pi_w0_t9_k2 0
pi_w0_t9_k3 0
pi_w0_t9_k4 0
pi_w0_t10_k0 0
pi_w0_t10_k1 0
pi_w0_t10_k2 0
pi_w0_t10_k3 0
pi_w0_t10_k4 0
pi_w0_t11_k0 0
pi_w0_t11_k1 0
pi_w0_t11_k2 0
pi_w0_t11_k3 0
pi_w0_t11_k4 0
pi_w0_t12_k0 0
pi_w0_t12_k1 0
pi_w0_t12_k2 0
pi_w0_t12_k3 0
pi_w0_t12_k4 0
pi_w0_t13_k0 0
pi_w0_t13_k1 0
pi_w0_t13_k2 0
pi_w0_t13_k3 0
pi_w0_t13_k4 0
pi_w0_t14_k0 0
pi_w0_t14_k1 0
pi_w0_t14_k2 0
pi_w0_t14_k3 0
pi_w0_t14_k4 0
pi_w0_t15_k0 0
pi_w0_t15_k1 0
pi_w0_t15_k2 0
pi_w0_t15_k3 0
pi_w0_t15_k4 0
pi_w0_t16_k0 0
pi_w0_t16_k1 0
pi_w0_t16_k2 0
pi_w0_t16_k3 0
pi_w0_t16_k4 0
pi_w0_t17_k0 0
pi_w0_t17_k1 0
pi_w0_t17_k2 0
pi_w0_t17_k3 0
pi_w0_t17_k4 0
pi_w0_t18_k0 0
pi_w0_t18_k1 0
pi_w0_t18_k2 0
pi_w0_t18_k3 0
pi_w0_t18_k4 0
pi_w0_t19_k0 0
pi_w0_t19_k1 0
pi_w0_t19_k2 0
pi_w0_t19_k3 0
pi_w0_t19_k4 0
pi_w0_t20_k0 0
pi_w0_t20_k1 0
pi_w0_t20_k2 0
pi_w0_t20_k3 0
pi_w0_t20_k4 0
pi_w0_t21_k0 0
pi_w0_t21_k1 0
pi_w0_t21_k2 0
pi_w0_t21_k3 0
pi_w0_t21_k4 0
pi_w0_t22_k0 0
pi_w0_t22_k1 0
pi_w0_t22_k2 0
pi_w0_t22_k3 0
pi_w0_t22_k4 0
pi_w0_t23_k0 0
pi_w0_t23_k1 0
pi_w0_t23_k2 0
pi_w0_t23_k3 0
pi_w0_t23_k4 0
pi_w0_t24_k0 0
pi_w0_t24_k1 0
pi_w0_t24_k2 0
pi_w0_t24_k3 0
pi_w0_t24_k4 0
pi_w0_t25_k0 0
pi_w0_t25_k1 0
pi_w0_t25_k2 0
pi_w0_t25_k3 0
pi_w0_t25_k4 0
pi_w0_t26_k0 0
pi_w0_t26_k1 0
pi_w0_t26_k2 0
pi_w0_t26_k3 0
pi_w0_t26_k4 0
pi_w0_t27_k0 0
pi_w0_t27_k1 0
pi_w0_t27_k2 0
pi_w0_t27_k3 0
pi_w0_t27_k4 0
pi_w0_t28_k0 0
pi_w0_t28_k1 0
pi_w0_t28_k2 0
pi_w0_t28_k3 0
pi_w0_t28_k4 0
pi_w0_t29_k0 0
pi_w0_t29_k1 0
pi_w0_t29_k2 0
pi_w0_t29_k3 0
pi_w0_t29_k4 0
pi_w0_t30_k0 0
pi_w0_t30_k1 0
pi_w0_t30_k2 0
pi_w0_t30_k3 0
pi_w0_t30_k4 0
pi_w1_t0_k0 1
pi_w1_t0_k1 1
pi_w1_t0_k2 1
pi_w1_t0_k3 1
pi_w1_t0_k4 0
pi_w1_t1_k0 0
pi_w1_t1_k1 0
pi_w1_t1_k2 0
pi_w1_t1_k3 0
pi_w1_t1_k4 0
pi_w1_t2_k0 0
pi_w1_t2_k1 0
pi_w1_t2_k2 0
pi_w1_t2_k3 0
pi_w1_t2_k4 0
pi_w1_t3_k0 0
pi_w1_t3_k1 0
pi_w1_t3_k2 0
pi_w1_t3_k3 0
pi_w1_t3_k4 0
pi_w1_t4_k0 0
pi_w1_t4_k1 0
pi_w1_t4_k2 0
pi_w1_t4_k3 0
pi_w1_t4_k4 4.4943268692434474e-01
pi_w1_t5_k0 0
pi_w1_t5_k1 0
pi_w1_t5_k2 0
pi_w1_t5_k3 0
pi_w1_t5_k4 0
pi_w1_t6_k0 0
pi_w1_t6_k1 0
pi_w1_t6_k2 0
pi_w1_t6_k3 0
pi_w1_t6_k4 0
pi_w1_t7_k0 0
pi_w1_t7_k1 0
pi_w1_t7_k2 0
pi_w1_t7_k3 0
pi_w1_t7_k4 0
pi_w1_t8_k0 0
pi_w1_t8_k1 0
pi_w1_t8_k2 0
pi_w1_t8_k3 0
pi_w1_t8_k4 0
pi_w1_t9_k0 0
pi_w1_t9_k1 0
pi_w1_t9_k2 0
pi_w1_t9_k3 0
pi_w1_t9_k4 0
pi_w1_t10_k0 0
pi_w1_t10_k1 0
pi_w1_t10_k2 0
pi_w1_t10_k3 0
pi_w1_t10_k4 0
pi_w1_t11_k0 0
pi_w1_t11_k1 0
pi_w1_t11_k2 0
pi_w1_t11_k3 0
pi_w1_t11_k4 3.2753314166654571e-02
pi_w1_t12_k0 0
pi_w1_t12_k1 0
pi_w1_t12_k2 0
pi_w1_t12_k3 0
pi_w1_t12_k4 0
pi_w1_t13_k0 0
pi_w1_t13_k1 0
pi_w1_t13_k2 0
pi_w1_t13_k3 0
pi_w1_t13_k4 0
pi_w1_t14_k0 0
pi_w1_t14_k1 0
pi_w1_t14_k2 0
pi_w1_t14_k3 0
pi_w1_t14_k4 1.1413278078152565e-02
pi_w1_t15_k0 0
pi_w1_t15_k1 0
pi_w1_t15_k2 0
pi_w1_t15_k3 0
pi_w1_t15_k4 4.5196894077245919e-02
pi_w1_t16_k0 0
pi_w1_t16_k1 0
pi_w1_t16_k2 0
pi_w1_t16_k3 0
pi_w1_t16_k4 0
pi_w1_t17_k0 0
pi_w1_t17_k1 0
pi_w1_t17_k2 0
pi_w1_t17_k3 0
pi_w1_t17_k4 0
pi_w1_t18_k0 0
pi_w1_t18_k1 0
pi_w1_t18_k2 0
pi_w1_t18_k3 0
pi_w1_t18_k4 0
pi_w1_t19_k0 0
pi_w1_t19_k1 0
pi_w1_t19_k2 0
pi_w1_t19_k3 0
pi_w1_t19_k4 0
pi_w1_t20_k0 0
pi_w1_t20_k1 0
pi_w1_t20_k2 0
pi_w1_t20_k3 0
pi_w1_t20_k4 0
pi_w1_t21_k0 0
pi_w1_t21_k1 0
pi_w1_t21_k2 0
pi_w1_t21_k3 0
pi_w1_t21_k4 1.8297136974638828e-01
pi_w1_t22_k0 0
pi_w1_t22_k1 0
pi_w1_t22_k2 0
pi_w1_t22_k3 0
pi_w1_t22_k4 0
pi_w1_t23_k0 0
pi_w1_t23_k1 0
pi_w1_t23_k2 0
pi_w1_t23_k3 0
pi_w1_t23_k4 2.7823245700721400e-01
pi_w1_t24_k0 0
pi_w1_t24_k1 0
pi_w1_t24_k2 0
pi_w1_t24_k3 0
pi_w1_t24_k4 0
pi_w1_t25_k0 0
pi_w1_t25_k1 0
pi_w1_t25_k2 0
pi_w1_t25_k3 0
pi_w1_t25_k4 0
pi_w1_t26_k0 0
pi_w1_t26_k1 0
pi_w1_t26_k2 0
pi_w1_t26_k3 0
pi_w1_t26_k4 0
pi_w1_t27_k0 0
pi_w1_t27_k1 0
pi_w1_t27_k2 0
pi_w1_t27_k3 0
pi_w1_t27_k4 0
pi_w1_t28_k0 0
pi_w1_t28_k1 0
pi_w1_t28_k2 0
pi_w1_t28_k3 0
pi_w1_t28_k4 0
pi_w1_t29_k0 0
pi_w1_t29_k1 0
pi_w1_t29_k2 0
pi_w1_t29_k3 0
pi_w1_t29_k4 0
pi_w1_t30_k0 0
pi_w1_t30_k1 0
pi_w1_t30_k2 0
pi_w1_t30_k3 0
pi_w1_t30_k4 0
pi_w2_t0_k0 0
pi_w2_t0_k1 0
pi_w2_t0_k2 0
pi_w2_t0_k3 0
pi_w2_t0_k4 0
pi_w2_t1_k0 0
pi_w2_t1_k1 0
pi_w2_t1_k2 0
pi_w2_t1_k3 0
pi_w2_t1_k4 0
pi_w2_t2_k0 0
pi_w2_t2_k1 0
pi_w2_t2_k2 0
pi_w2_t2_k3 0
pi_w2_t2_k4 0
pi_w2_t3_k0 0
pi_w2_t3_k1 0
pi_w2_t3_k2 0
pi_w2_t3_k3 7.4332428577979170e-02
pi_w2_t3_k4 2.1494192246223509e-02
pi_w2_t4_k0 0
pi_w2_t4_k1 0
pi_w2_t4_k2 0
pi_w2_t4_k3 0
pi_w2_t4_k4 0
pi_w2_t5_k0 0
pi_w2_t5_k1 0
pi_w2_t5_k2 0
pi_w2_t5_k3 0
pi_w2_t5_k4 0
pi_w2_t6_k0 0
pi_w2_t6_k1 0
pi_w2_t6_k2 0
pi_w2_t6_k3 0
pi_w2_t6_k4 0
pi_w2_t7_k0 0
pi_w2_t7_k1 0
pi_w2_t7_k2 0
pi_w2_t7_k3 0
pi_w2_t7_k4 0
pi_w2_t8_k0 0
pi_w2_t8_k1 0
pi_w2_t8_k2 0
pi_w2_t8_k3 0
pi_w2_t8_k4 0
pi_w2_t9_k0 0
pi_w2_t9_k1 0
pi_w2_t9_k2 0
pi_w2_t9_k3 2.5456567734299655e-02
pi_w2_t9_k4 0
pi_w2_t10_k0 0
pi_w2_t10_k1 0
pi_w2_t10_k2 0
pi_w2_t10_k3 9.0021100368772122e-01
pi_w2_t10_k4 9.7850580775377649e-01
pi_w2_t11_k0 0
pi_w2_t11_k1 0
pi_w2_t11_k2 1.4029171204085381e-02
pi_w2_t11_k3 0
pi_w2_t11_k4 0
pi_w2_t12_k0 0
pi_w2_t12_k1 0
pi_w2_t12_k2 0
pi_w2_t12_k3 0
pi_w2_t12_k4 0
pi_w2_t13_k0 0
pi_w2_t13_k1 0
pi_w2_t13_k2 0
pi_w2_t13_k3 0
pi_w2_t13_k4 0
pi_w2_t14_k0 0
pi_w2_t14_k1 0
pi_w2_t14_k2 0
pi_w2_t14_k3 0
pi_w2_t14_k4 0
pi_w2_t15_k0 0
pi_w2_t15_k1 0
pi_w2_t15_k2 0
pi_w2_t15_k3 0
pi_w2_t15_k4 0
pi_w2_t16_k0 0
pi_w2_t16_k1 0
pi_w2_t16_k2 0
pi_w2_t16_k3 0
pi_w2_t16_k4 0
pi_w2_t17_k0 0
pi_w2_t17_k1 0
pi_w2_t17_k2 0
pi_w2_t17_k3 0
pi_w2_t17_k4 0
pi_w2_t18_k0 0
pi_w2_t18_k1 0
pi_w2_t18_k2 0
pi_w2_t18_k3 0
pi_w2_t18_k4 0
pi_w2_t19_k0 0
pi_w2_t19_k1 0
pi_w2_t19_k2 0
pi_w2_t19_k3 0
pi_w2_t19_k4 0
pi_w2_t20_k0 0
pi_w2_t20_k1 0
pi_w2_t20_k2 0
pi_w2_t20_k3 0
pi_w2_t20_k4 0
pi_w2_t21_k0 5.3565163623307277e-01
pi_w2_t21_k1 1.5743519499970426e-01
pi_w2_t21_k2 5.2979691142995999e-01
pi_w2_t21_k3 0
pi_w2_t21_k4 0
pi_w2_t22_k0 0
pi_w2_t22_k1 6.7274978398991336e-01
pi_w2_t22_k2 9.3873740527038049e-02
pi_w2_t22_k3 0
pi_w2_t22_k4 0
pi_w2_t23_k0 1.7832229697209379e-01
pi_w2_t23_k1 1.6981502101038237e-01
pi_w2_t23_k2 1.1287253996073994e-01
pi_w2_t23_k3 0
pi_w2_t23_k4 0
pi_w2_t24_k0 0
pi_w2_t24_k1 0
pi_w2_t24_k2 0
pi_w2_t24_k3 0
pi_w2_t24_k4 0
pi_w2_t25_k0 2.8602606679483344e-01
pi_w2_t25_k1 0
pi_w2_t25_k2 2.4942763687817662e-01
pi_w2_t25_k3 0
pi_w2_t25_k4 0
pi_w2_t26_k0 0
pi_w2_t26_k1 0
pi_w2_t26_k2 0
pi_w2_t26_k3 0
pi_w2_t26_k4 0
pi_w2_t27_k0 0
pi_w2_t27_k1 0
pi_w2_t27_k2 0
pi_w2_t27_k3 0
pi_w2_t27_k4 0
pi_w2_t28_k0 0
pi_w2_t28_k1 0
pi_w2_t28_k2 0
pi_w2_t28_k3 0
pi_w2_t28_k4 0
pi_w2_t29_k0 0
pi_w2_t29_k1 0
pi_w2_t29_k2 0
pi_w2_t29_k3 0
pi_w2_t29_k4 0
pi_w2_t30_k0 0
pi_w2_t30_k1 0
pi_w2_t30_k2 0
pi_w2_t30_k3 0
pi_w2_t30_k4 0
pi_w3_t0_k0 0
pi_w3_t0_k1 0
pi_w3_t0_k2 0
pi_w3_t0_k3 0
pi_w3_t0_k4 0
pi_w3_t1_k0 0
pi_w3_t1_k1 0
pi_w3_t1_k2 0
pi_w3_t1_k3 0
pi_w3_t1_k4 0
pi_w3_t2_k0 0
pi_w3_t2_k1 0
pi_w3_t2_k2 0
pi_w3_t2_k3 0
pi_w3_t2_k4 0
pi_w3_t3_k0 0
pi_w3_t3_k1 0
pi_w3_t3_k2 0
pi_w3_t3_k3 7.4332428577978948e-02
pi_w3_t3_k4 2.1494192246227950e-02
pi_w3_t4_k0 0
pi_w3_t4_k1 0
pi_w3_t4_k2 0
pi_w3_t4_k3 0
pi_w3_t4_k4 0
pi_w3_t5_k0 0
pi_w3_t5_k1 0
pi_w3_t5_k2 0
pi_w3_t5_k3 0
pi_w3_t5_k4 0
pi_w3_t6_k0 0
pi_w3_t6_k1 0
pi_w3_t6_k2 0
pi_w3_t6_k3 0
pi_w3_t6_k4 0
pi_w3_t7_k0 0
pi_w3_t7_k1 0
pi_w3_t7_k2 0
pi_w3_t7_k3 0
pi_w3_t7_k4 0
pi_w3_t8_k0 0
pi_w3_t8_k1 0
pi_w3_t8_k2 0
pi_w3_t8_k3 0
pi_w3_t8_k4 0
pi_w3_t9_k0 0
pi_w3_t9_k1 0
pi_w3_t9_k2 0
pi_w3_t9_k3 2.5456567734299655e-02
pi_w3_t9_k4 0
pi_w3_t10_k0 0
pi_w3_t10_k1 0
pi_w3_t10_k2 0
pi_w3_t10_k3 9.0021100368772144e-01
pi_w3_t10_k4 9.7850580775377205e-01
pi_w3_t11_k0 3.0243023277652203e-01
pi_w3_t11_k1 2.4546238268006718e-01
pi_w3_t11_k2 2.6263910600944090e-01
pi_w3_t11_k3 0
pi_w3_t11_k4 0
pi_w3_t12_k0 0
pi_w3_t12_k1 0
pi_w3_t12_k2 0
pi_w3_t12_k3 0
pi_w3_t12_k4 0
pi_w3_t13_k0 0
pi_w3_t13_k1 0
pi_w3_t13_k2 0
pi_w3_t13_k3 0
pi_w3_t13_k4 0
pi_w3_t14_k0 0
pi_w3_t14_k1 0
pi_w3_t14_k2 0
pi_w3_t14_k3 0
pi_w3_t14_k4 0
pi_w3_t15_k0 0
pi_w3_t15_k1 0
pi_w3_t15_k2 0
pi_w3_t15_k3 0
pi_w3_t15_k4 0
pi_w3_t16_k0 0
pi_w3_t16_k1 0
pi_w3_t16_k2 0
pi_w3_t16_k3 0
pi_w3_t16_k4 0
pi_w3_t17_k0 0
pi_w3_t17_k1 0
pi_w3_t17_k2 0
pi_w3_t17_k3 0
pi_w3_t17_k4 0
pi_w3_t18_k0 0
pi_w3_t18_k1 0
pi_w3_t18_k2 0
pi_w3_t18_k3 0
pi_w3_t18_k4 0
pi_w3_t19_k0 0
pi_w3_t19_k1 0
pi_w3_t19_k2 0
pi_w3_t19_k3 0
pi_w3_t19_k4 0
pi_w3_t20_k0 0
pi_w3_t20_k1 0
pi_w3_t20_k2 0
pi_w3_t20_k3 0
pi_w3_t20_k4 0
pi_w3_t21_k0 4.1660189196512643e-01
pi_w3_t21_k1 2.6862088154061192e-01
pi_w3_t21_k2 4.1913004053281827e-01
pi_w3_t21_k3 0
pi_w3_t21_k4 0
pi_w3_t22_k0 0
pi_w3_t22_k1 0
pi_w3_t22_k2 1.3532168378691403e-01
pi_w3_t22_k3 0
pi_w3_t22_k4 0
pi_w3_t23_k0 2.8096787525835154e-01
pi_w3_t23_k1 4.8591673577932087e-01
pi_w3_t23_k2 1.8290916967082682e-01
pi_w3_t23_k3 0
pi_w3_t23_k4 0
pi_w3_t24_k0 0
pi_w3_t24_k1 0
pi_w3_t24_k2 0
pi_w3_t24_k3 0
pi_w3_t24_k4 0
pi_w3_t25_k0 0
pi_w3_t25_k1 0
pi_w3_t25_k2 0
pi_w3_t25_k3 0
pi_w3_t25_k4 0
pi_w3_t26_k0 0
pi_w3_t26_k1 0
pi_w3_t26_k2 0
pi_w3_t26_k3 0
pi_w3_t26_k4 0
pi_w3_t27_k0 0
pi_w3_t27_k1 0
pi_w3_t27_k2 0
pi_w3_t27_k3 0
pi_w3_t27_k4 0
pi_w3_t28_k0 0
pi_w3_t28_k1 0
pi_w3_t28_k2 0
pi_w3_t28_k3 0
pi_w3_t28_k4 0
pi_w3_t29_k0 0
pi_w3_t29_k1 0
pi_w3_t29_k2 0
pi_w3_t29_k3 0
pi_w3_t29_k4 0
pi_w3_t30_k0 0
pi_w3_t30_k1 0
pi_w3_t30_k2 0
pi_w3_t30_k3 0
pi_w3_t30_k4 0
pi_w4_t0_k0 0
pi_w4_t0_k1 0
pi_w4_t0_k2 0
pi_w4_t0_k3 0
pi_w4_t0_k4 1
pi_w4_t1_k0 0
pi_w4_t1_k1 0
pi_w4_t1_k2 0
pi_w4_t1_k3 0
pi_w4_t1_k4 0
pi_w4_t2_k0 0
pi_w4_t2_k1 0
pi_w4_t2_k2 0
pi_w4_t2_k3 0
pi_w4_t2_k4 0
pi_w4_t3_k0 0
pi_w4_t3_k1 0
pi_w4_t3_k2 0
pi_w4_t3_k3 7.4332428577978948e-02
pi_w4_t3_k4 0
pi_w4_t4_k0 0
pi_w4_t4_k1 0
pi_w4_t4_k2 0
pi_w4_t4_k3 0
pi_w4_t4_k4 0
pi_w4_t5_k0 0
pi_w4_t5_k1 0
pi_w4_t5_k2 0
pi_w4_t5_k3 0
pi_w4_t5_k4 0
pi_w4_t6_k0 0
pi_w4_t6_k1 0
pi_w4_t6_k2 0
pi_w4_t6_k3 0
pi_w4_t6_k4 0
pi_w4_t7_k0 0
pi_w4_t7_k1 0
pi_w4_t7_k2 0
pi_w4_t7_k3 0
pi_w4_t7_k4 0
pi_w4_t8_k0 0
pi_w4_t8_k1 0
pi_w4_t8_k2 0
pi_w4_t8_k3 0
pi_w4_t8_k4 0
pi_w4_t9_k0 0
pi_w4_t9_k1 0
pi_w4_t9_k2 0
pi_w4_t9_k3 2.5456567734299763e-02
pi_w4_t9_k4 0
pi_w4_t10_k0 0
pi_w4_t10_k1 0
pi_w4_t10_k2 0
pi_w4_t10_k3 9.0021100368772133e-01
pi_w4_t10_k4 0
pi_w4_t11_k0 8.7165379089452433e-02
pi_w4_t11_k1 0
pi_w4_t11_k2 0
pi_w4_t11_k3 0
pi_w4_t11_k4 0
pi_w4_t12_k0 0
pi_w4_t12_k1 0
pi_w4_t12_k2 0
pi_w4_t12_k3 0
pi_w4_t12_k4 0
pi_w4_t13_k0 0
pi_w4_t13_k1 0
pi_w4_t13_k2 0
pi_w4_t13_k3 0
pi_w4_t13_k4 0
pi_w4_t14_k0 0
pi_w4_t14_k1 0
pi_w4_t14_k2 0
pi_w4_t14_k3 0
pi_w4_t14_k4 0
pi_w4_t15_k0 0
pi_w4_t15_k1 0
pi_w4_t15_k2 0
pi_w4_t15_k3 0
pi_w4_t15_k4 0
pi_w4_t16_k0 0
pi_w4_t16_k1 0
pi_w4_t16_k2 0
pi_w4_t16_k3 0
pi_w4_t16_k4 0
pi_w4_t17_k0 0
pi_w4_t17_k1 0
pi_w4_t17_k2 0
pi_w4_t17_k3 0
pi_w4_t17_k4 0
pi_w4_t18_k0 0
pi_w4_t18_k1 0
pi_w4_t18_k2 0
pi_w4_t18_k3 0
pi_w4_t18_k4 0
pi_w4_t19_k0 0
pi_w4_t19_k1 0
pi_w4_t19_k2 0
pi_w4_t19_k3 0
pi_w4_t19_k4 0
pi_w4_t20_k0 0
pi_w4_t20_k1 0
pi_w4_t20_k2 0
pi_w4_t20_k3 0
pi_w4_t20_k4 0
pi_w4_t21_k0 3.2009962584359930e-01
pi_w4_t21_k1 1.5743519499970365e-01
pi_w4_t21_k2 4.3880977006686861e-01
pi_w4_t21_k3 0
pi_w4_t21_k4 0
pi_w4_t22_k0 5.8673248589682236e-01
pi_w4_t22_k1 6.7274978398991225e-01
pi_w4_t22_k2 4.0630679143763854e-01
pi_w4_t22_k3 0
pi_w4_t22_k4 0
pi_w4_t23_k0 4.8797868063986654e-03
pi_w4_t23_k1 1.6981502101038409e-01
pi_w4_t23_k2 0
pi_w4_t23_k3 0
pi_w4_t23_k4 0
pi_w4_t24_k0 0
pi_w4_t24_k1 0
pi_w4_t24_k2 0
pi_w4_t24_k3 0
pi_w4_t24_k4 0
pi_w4_t25_k0 1.1227223637272294e-03
pi_w4_t25_k1 0
pi_w4_t25_k2 1.5488343849549283e-01
pi_w4_t25_k3 0
pi_w4_t25_k4 0
pi_w4_t26_k0 0
pi_w4_t26_k1 0
pi_w4_t26_k2 0
pi_w4_t26_k3 0
pi_w4_t26_k4 0
pi_w4_t27_k0 0
pi_w4_t27_k1 0
pi_w4_t27_k2 0
pi_w4_t27_k3 0
pi_w4_t27_k4 0
pi_w4_t28_k0 0
pi_w4_t28_k1 0
pi_w4_t28_k2 0
pi_w4_t28_k3 0
pi_w4_t28_k4 0
pi_w4_t29_k0 0
pi_w4_t29_k1 0
pi_w4_t29_k2 0
pi_w4_t29_k3 0
pi_w4_t29_k4 0
pi_w4_t30_k0 0
pi_w4_t30_k1 0
pi_w4_t30_k2 0
pi_w4_t30_k3 0
pi_w4_t30_k4 0
n_w0_t0_k0 0
n_w0_t0_k1 0
n_w0_t0_k2 0
n_w0_t0_k3 0
n_w0_t0_k4 0
n_w0_t1_k0 0
n_w0_t1_k1 0
n_w0_t1_k2 0
n_w0_t1_k3 0
n_w0_t1_k4 0
n_w0_t2_k0 0
n_w0_t2_k1 0
n_w0_t2_k2 0
n_w0_t2_k3 0
n_w0_t2_k4 0
n_w0_t3_k0 0
n_w0_t3_k1 0
n_w0_t3_k2 0
n_w0_t3_k3 0
n_w0_t3_k4 0
n_w0_t4_k0 0
n_w0_t4_k1 0
n_w0_t4_k2 0
n_w0_t4_k3 0
n_w0_t4_k4 0
n_w0_t5_k0 0
n_w0_t5_k1 0
n_w0_t5_k2 0
n_w0_t5_k3 0
n_w0_t5_k4 0
n_w0_t6_k0 0
n_w0_t6_k1 0
n_w0_t6_k2 0
n_w0_t6_k3 0
n_w0_t6_k4 0
n_w0_t7_k0 0
n_w0_t7_k1 0
n_w0_t7_k2 0
n_w0_t7_k3 0
n_w0_t7_k4 0
n_w0_t8_k0 0
n_w0_t8_k1 0
n_w0_t8_k2 0
n_w0_t8_k3 0
n_w0_t8_k4 0
n_w0_t9_k0 0
n_w0_t9_k1 0
n_w0_t9_k2 0
n_w0_t9_k3 0
n_w0_t9_k4 0
n_w0_t10_k0 0
n_w0_t10_k1 0
n_w0_t10_k2 0
n_w0_t10_k3 0
n_w0_t10_k4 0
n_w0_t11_k0 0
n_w0_t11_k1 0
n_w0_t11_k2 0
n_w0_t11_k3 0
n_w0_t11_k4 0
n_w0_t12_k0 0
n_w0_t12_k1 0
n_w0_t12_k2 0
n_w0_t12_k3 0
n_w0_t12_k4 0
n_w0_t13_k0 0
n_w0_t13_k1 0
n_w0_t13_k2 0
n_w0_t13_k3 0
n_w0_t13_k4 0
n_w0_t14_k0 0
n_w0_t14_k1 0
n_w0_t14_k2 0
n_w0_t14_k3 0
n_w0_t14_k4 0
n_w0_t15_k0 0
n_w0_t15_k1 0
n_w0_t15_k2 0
n_w0_t15_k3 0
n_w0_t15_k4 0
n_w0_t16_k0 0
n_w0_t16_k1 0
n_w0_t16_k2 0
n_w0_t16_k3 0
n_w0_t16_k4 0
n_w0_t17_k0 0
n_w0_t17_k1 0
n_w0_t17_k2 0
n_w0_t17_k3 0
n_w0_t17_k4 0
n_w0_t18_k0 0
n_w0_t18_k1 0
n_w0_t18_k2 0
n_w0_t18_k3 0
n_w0_t18_k4 0
n_w0_t19_k0 0
n_w0_t19_k1 0
n_w0_t19_k2 0
n_w0_t19_k3 0
n_w0_t19_k4 0
n_w0_t20_k0 0
n_w0_t20_k1 0
n_w0_t20_k2 0
n_w0_t20_k3 0
n_w0_t20_k4 0
n_w0_t21_k0 0
n_w0_t21_k1 0
n_w0_t21_k2 0
n_w0_t21_k3 0
n_w0_t21_k4 0
n_w0_t22_k0 0
n_w0_t22_k1 0
n_w0_t22_k2 0
n_w0_t22_k3 0
n_w0_t22_k4 0
n_w0_t23_k0 0
n_w0_t23_k1 0
n_w0_t23_k2 0
n_w0_t23_k3 0
n_w0_t23_k4 0
n_w0_t24_k0 0
n_w0_t24_k1 0
n_w0_t24_k2 0
n_w0_t24_k3 0
n_w0_t24_k4 0
n_w0_t25_k0 0
n_w0_t25_k1 0
n_w0_t25_k2 0
n_w0_t25_k3 0
n_w0_t25_k4 0
n_w0_t26_k0 0
n_w0_t26_k1 0
n_w0_t26_k2 0
n_w0_t26_k3 0
n_w0_t26_k4 0
n_w0_t27_k0 0
n_w0_t27_k1 0
n_w0_t27_k2 0
n_w0_t27_k3 0
n_w0_t27_k4 0
n_w0_t28_k0 0
n_w0_t28_k1 0
n_w0_t28_k2 0
n_w0_t28_k3 0
n_w0_t28_k4 0
n_w0_t29_k0 0
n_w0_t29_k1 0
n_w0_t29_k2 0
n_w0_t29_k3 0
n_w0_t29_k4 0
n_w0_t30_k0 0
n_w0_t30_k1 0
n_w0_t30_k2 0
n_w0_t30_k3 0
n_w0_t30_k4 0
n_w1_t0_k0 0
n_w1_t0_k1 0
n_w1_t0_k2 0
n_w1_t0_k3 0
n_w1_t0_k4 0
n_w1_t1_k0 0
n_w1_t1_k1 0
n_w1_t1_k2 0
n_w1_t1_k3 0
n_w1_t1_k4 0
n_w1_t2_k0 0
n_w1_t2_k1 0
n_w1_t2_k2 0
n_w1_t2_k3 0
n_w1_t2_k4 0
n_w1_t3_k0 0
n_w1_t3_k1 0
n_w1_t3_k2 0
n_w1_t3_k3 0
n_w1_t3_k4 0
n_w1_t4_k0 0
n_w1_t4_k1 0
n_w1_t4_k2 0
n_w1_t4_k3 0
n_w1_t4_k4 8.5392210515625493e+00
n_w1_t5_k0 0
n_w1_t5_k1 0
n_w1_t5_k2 0
n_w1_t5_k3 0
n_w1_t5_k4 0
n_w1_t6_k0 0
n_w1_t6_k1 0
n_w1_t6_k2 0
n_w1_t6_k3 0
n_w1_t6_k4 0
n_w1_t7_k0 0
n_w1_t7_k1 0
n_w1_t7_k2 0
n_w1_t7_k3 0
n_w1_t7_k4 0
n_w1_t8_k0 0
n_w1_t8_k1 0
n_w1_t8_k2 0
n_w1_t8_k3 0
n_w1_t8_k4 0
n_w1_t9_k0 0
n_w1_t9_k1 0
n_w1_t9_k2 0
n_w1_t9_k3 0
n_w1_t9_k4 0
n_w1_t10_k0 0
n_w1_t10_k1 0
n_w1_t10_k2 0
n_w1_t10_k3 0
n_w1_t10_k4 0
n_w1_t11_k0 0
n_w1_t11_k1 0
n_w1_t11_k2 0
n_w1_t11_k3 0
n_w1_t11_k4 6.2231296916643686e-01
n_w1_t12_k0 0
n_w1_t12_k1 0
n_w1_t12_k2 0
n_w1_t12_k3 0
n_w1_t12_k4 0
n_w1_t13_k0 0
n_w1_t13_k1 0
n_w1_t13_k2 0
n_w1_t13_k3 0
n_w1_t13_k4 0
n_w1_t14_k0 0
n_w1_t14_k1 0
n_w1_t14_k2 0
n_w1_t14_k3 0
n_w1_t14_k4 2.1685228348489874e-01
n_w1_t15_k0 0
n_w1_t15_k1 0
n_w1_t15_k2 0
n_w1_t15_k3 0
n_w1_t15_k4 8.5874098746767247e-01
n_w1_t16_k0 0
n_w1_t16_k1 0
n_w1_t16_k2 0
n_w1_t16_k3 0
n_w1_t16_k4 0
n_w1_t17_k0 0
n_w1_t17_k1 0
n_w1_t17_k2 0
n_w1_t17_k3 0
n_w1_t17_k4 0
n_w1_t18_k0 0
n_w1_t18_k1 0
n_w1_t18_k2 0
n_w1_t18_k3 0
n_w1_t18_k4 0
n_w1_t19_k0 0
n_w1_t19_k1 0
n_w1_t19_k2 0
n_w1_t19_k3 0
n_w1_t19_k4 0
n_w1_t20_k0 0
n_w1_t20_k1 0
n_w1_t20_k2 0
n_w1_t20_k3 0
n_w1_t20_k4 0
n_w1_t21_k0 0
n_w1_t21_k1 0
n_w1_t21_k2 0
n_w1_t21_k3 0
n_w1_t21_k4 3.4764560251813776e+00
n_w1_t22_k0 0
n_w1_t22_k1 0
n_w1_t22_k2 0
n_w1_t22_k3 0
n_w1_t22_k4 0
n_w1_t23_k0 0
n_w1_t23_k1 0
n_w1_t23_k2 0
n_w1_t23_k3 0
n_w1_t23_k4 5.2864166831370660e+00
n_w1_t24_k0 0
n_w1_t24_k1 0
n_w1_t24_k2 0
n_w1_t24_k3 0
n_w1_t24_k4 0
n_w1_t25_k0 0
n_w1_t25_k1 0
n_w1_t25_k2 0
n_w1_t25_k3 0
n_w1_t25_k4 0
n_w1_t26_k0 0
n_w1_t26_k1 0
n_w1_t26_k2 0
n_w1_t26_k3 0
n_w1_t26_k4 0
n_w1_t27_k0 0
n_w1_t27_k1 0
n_w1_t27_k2 0
n_w1_t27_k3 0
n_w1_t27_k4 0
n_w1_t28_k0 0
n_w1_t28_k1 0
n_w1_t28_k2 0
n_w1_t28_k3 0
n_w1_t28_k4 0
n_w1_t29_k0 0
n_w1_t29_k1 0
n_w1_t29_k2 0
n_w1_t29_k3 0
n_w1_t29_k4 0
n_w1_t30_k0 0
n_w1_t30_k1 0
n_w1_t30_k2 0
n_w1_t30_k3 0
n_w1_t30_k4 0
n_w2_t0_k0 0
n_w2_t0_k1 0
n_w2_t0_k2 0
n_w2_t0_k3 0
n_w2_t0_k4 0
n_w2_t1_k0 0
n_w2_t1_k1 0
n_w2_t1_k2 0
n_w2_t1_k3 0
n_w2_t1_k4 0
n_w2_t2_k0 0
n_w2_t2_k1 0
n_w2_t2_k2 0
n_w2_t2_k3 0
n_w2_t2_k4 0
n_w2_t3_k0 0
n_w2_t3_k1 0
n_w2_t3_k2 0
n_w2_t3_k3 1.6204469429999460e+01
n_w2_t3_k4 4.2988384492447018e-01
n_w2_t4_k0 0
n_w2_t4_k1 0
n_w2_t4_k2 0
n_w2_t4_k3 0
n_w2_t4_k4 0
n_w2_t5_k0 0
n_w2_t5_k1 0
n_w2_t5_k2 0
n_w2_t5_k3 0
n_w2_t5_k4 0
n_w2_t6_k0 0
n_w2_t6_k1 0
n_w2_t6_k2 0
n_w2_t6_k3 0
n_w2_t6_k4 0
n_w2_t7_k0 0
n_w2_t7_k1 0
n_w2_t7_k2 0
n_w2_t7_k3 0
n_w2_t7_k4 0
n_w2_t8_k0 0
n_w2_t8_k1 0
n_w2_t8_k2 0
n_w2_t8_k3 0
n_w2_t8_k4 0
n_w2_t9_k0 0
n_w2_t9_k1 0
n_w2_t9_k2 0
n_w2_t9_k3 5.5495317660773242e+00
n_w2_t9_k4 0
n_w2_t10_k0 0
n_w2_t10_k1 0
n_w2_t10_k2 0
n_w2_t10_k3 1.9624599880392321e+02
n_w2_t10_k4 1.9570116155075528e+01
n_w2_t11_k0 0
n_w2_t11_k1 0
n_w2_t11_k2 1.5572380036534772e+00
n_w2_t11_k3 0
n_w2_t11_k4 0
n_w2_t12_k0 0
n_w2_t12_k1 0
n_w2_t12_k2 0
n_w2_t12_k3 0
n_w2_t12_k4 0
n_w2_t13_k0 0
n_w2_t13_k1 0
n_w2_t13_k2 0
n_w2_t13_k3 0
n_w2_t13_k4 0
n_w2_t14_k0 0
n_w2_t14_k1 0
n_w2_t14_k2 0
n_w2_t14_k3 0
n_w2_t14_k4 0
n_w2_t15_k0 0
n_w2_t15_k1 0
n_w2_t15_k2 0
n_w2_t15_k3 0
n_w2_t15_k4 0
n_w2_t16_k0 0
n_w2_t16_k1 0
n_w2_t16_k2 0
n_w2_t16_k3 0
n_w2_t16_k4 0
n_w2_t17_k0 0
n_w2_t17_k1 0
n_w2_t17_k2 0
n_w2_t17_k3 0
n_w2_t17_k4 0
n_w2_t18_k0 0
n_w2_t18_k1 0
n_w2_t18_k2 0
n_w2_t18_k3 0
n_w2_t18_k4 0
n_w2_t19_k0 0
n_w2_t19_k1 0
n_w2_t19_k2 0
n_w2_t19_k3 0
n_w2_t19_k4 0
n_w2_t20_k0 0
n_w2_t20_k1 0
n_w2_t20_k2 0
n_w2_t20_k3 0
n_w2_t20_k4 0
n_w2_t21_k0 9.6417294521953103e+00
n_w2_t21_k1 3.6210094849931980e+00
n_w2_t21_k2 5.8807457168725563e+01
n_w2_t21_k3 0
n_w2_t21_k4 0
n_w2_t22_k0 0
n_w2_t22_k1 1.5473245031768009e+01
n_w2_t22_k2 1.0419985198501223e+01
n_w2_t22_k3 0
n_w2_t22_k4 0
n_w2_t23_k0 3.2098013454976884e+00
n_w2_t23_k1 3.9057454832387948e+00
n_w2_t23_k2 1.2528851935642134e+01
n_w2_t23_k3 0
n_w2_t23_k4 0
n_w2_t24_k0 0
n_w2_t24_k1 0
n_w2_t24_k2 0
n_w2_t24_k3 0
n_w2_t24_k4 0
n_w2_t25_k0 5.1484692023070027e+00
n_w2_t25_k1 0
n_w2_t25_k2 2.7686467693477606e+01
n_w2_t25_k3 0
n_w2_t25_k4 0
n_w2_t26_k0 0
n_w2_t26_k1 0
n_w2_t26_k2 0
n_w2_t26_k3 0
n_w2_t26_k4 0
n_w2_t27_k0 0
n_w2_t27_k1 0
n_w2_t27_k2 0
n_w2_t27_k3 0
n_w2_t27_k4 0
n_w2_t28_k0 0
n_w2_t28_k1 0
n_w2_t28_k2 0
n_w2_t28_k3 0
n_w2_t28_k4 0
n_w2_t29_k0 0
n_w2_t29_k1 0
n_w2_t29_k2 0
n_w2_t29_k3 0
n_w2_t29_k4 0
n_w2_t30_k0 0
n_w2_t30_k1 0
n_w2_t30_k2 0
n_w2_t30_k3 0
n_w2_t30_k4 0
n_w3_t0_k0 0
n_w3_t0_k1 0
n_w3_t0_k2 0
n_w3_t0_k3 0
n_w3_t0_k4 0
n_w3_t1_k0 0
n_w3_t1_k1 0
n_w3_t1_k2 0
n_w3_t1_k3 0
n_w3_t1_k4 0
n_w3_t2_k0 0
n_w3_t2_k1 0
n_w3_t2_k2 0
n_w3_t2_k3 0
n_w3_t2_k4 0
n_w3_t3_k0 0
n_w3_t3_k1 0
n_w3_t3_k2 0
n_w3_t3_k3 1.7468120715825052e+01
n_w3_t3_k4 5.1586061390947080e-01
n_w3_t4_k0 0
n_w3_t4_k1 0
n_w3_t4_k2 0
n_w3_t4_k3 0
n_w3_t4_k4 0
n_w3_t5_k0 0
n_w3_t5_k1 0
n_w3_t5_k2 0
n_w3_t5_k3 0
n_w3_t5_k4 0
n_w3_t6_k0 0
n_w3_t6_k1 0
n_w3_t6_k2 0
n_w3_t6_k3 0
n_w3_t6_k4 0
n_w3_t7_k0 0
n_w3_t7_k1 0
n_w3_t7_k2 0
n_w3_t7_k3 0
n_w3_t7_k4 0
n_w3_t8_k0 0
n_w3_t8_k1 0
n_w3_t8_k2 0
n_w3_t8_k3 0
n_w3_t8_k4 0
n_w3_t9_k0 0
n_w3_t9_k1 0
n_w3_t9_k2 0
n_w3_t9_k3 5.9822934175604185e+00
n_w3_t9_k4 0
n_w3_t10_k0 0
n_w3_t10_k1 0
n_w3_t10_k2 0
n_w3_t10_k3 2.1154958586661454e+02
n_w3_t10_k4 2.3484139386090529e+01
n_w3_t11_k0 6.6534651210834843e+00
n_w3_t11_k1 7.0202241446499215e+01
n_w3_t11_k2 5.7517964216067561e+01
n_w3_t11_k3 0
n_w3_t11_k4 0
n_w3_t12_k0 0
n_w3_t12_k1 0
n_w3_t12_k2 0
n_w3_t12_k3 0
n_w3_t12_k4 0
n_w3_t13_k0 0
n_w3_t13_k1 0
n_w3_t13_k2 0
n_w3_t13_k3 0
n_w3_t13_k4 0
n_w3_t14_k0 0
n_w3_t14_k1 0
n_w3_t14_k2 0
n_w3_t14_k3 0
n_w3_t14_k4 0
n_w3_t15_k0 0
n_w3_t15_k1 0
n_w3_t15_k2 0
n_w3_t15_k3 0
n_w3_t15_k4 0
n_w3_t16_k0 0
n_w3_t16_k1 0
n_w3_t16_k2 0
n_w3_t16_k3 0
n_w3_t16_k4 0
n_w3_t17_k0 0
n_w3_t17_k1 0
n_w3_t17_k2 0
n_w3_t17_k3 0
n_w3_t17_k4 0
n_w3_t18_k0 0
n_w3_t18_k1 0
n_w3_t18_k2 0
n_w3_t18_k3 0
n_w3_t18_k4 0
n_w3_t19_k0 0
n_w3_t19_k1 0
n_w3_t19_k2 0
n_w3_t19_k3 0
n_w3_t19_k4 0
n_w3_t20_k0 0
n_w3_t20_k1 0
n_w3_t20_k2 0
n_w3_t20_k3 0
n_w3_t20_k4 0
n_w3_t21_k0 9.1652416232327809e+00
n_w3_t21_k1 7.6825572120615007e+01
n_w3_t21_k2 9.1789478876687213e+01
n_w3_t21_k3 0
n_w3_t21_k4 0
n_w3_t22_k0 0
n_w3_t22_k1 0
n_w3_t22_k2 2.9635448749334177e+01
n_w3_t22_k3 0
n_w3_t22_k4 0
n_w3_t23_k0 6.1812932556837339e+00
n_w3_t23_k1 1.3897218643288576e+02
n_w3_t23_k2 4.0057108157911074e+01
n_w3_t23_k3 0
n_w3_t23_k4 0
n_w3_t24_k0 0
n_w3_t24_k1 0
n_w3_t24_k2 0
n_w3_t24_k3 0
n_w3_t24_k4 0
n_w3_t25_k0 0
n_w3_t25_k1 0
n_w3_t25_k2 0
n_w3_t25_k3 0
n_w3_t25_k4 0
n_w3_t26_k0 0
n_w3_t26_k1 0
n_w3_t26_k2 0
n_w3_t26_k3 0
n_w3_t26_k4 0
n_w3_t27_k0 0
n_w3_t27_k1 0
n_w3_t27_k2 0
n_w3_t27_k3 0
n_w3_t27_k4 0
n_w3_t28_k0 0
n_w3_t28_k1 0
n_w3_t28_k2 0
n_w3_t28_k3 0
n_w3_t28_k4 0
n_w3_t29_k0 0
n_w3_t29_k1 0
n_w3_t29_k2 0
n_w3_t29_k3 0
n_w3_t29_k4 0
n_w3_t30_k0 0
n_w3_t30_k1 0
n_w3_t30_k2 0
n_w3_t30_k3 0
n_w3_t30_k4 0
n_w4_t0_k0 0
n_w4_t0_k1 0
n_w4_t0_k2 0
n_w4_t0_k3 0
n_w4_t0_k4 0
n_w4_t1_k0 0
n_w4_t1_k1 0
n_w4_t1_k2 0
n_w4_t1_k3 0
n_w4_t1_k4 0
n_w4_t2_k0 0
n_w4_t2_k1 0
n_w4_t2_k2 0
n_w4_t2_k3 0
n_w4_t2_k4 0
n_w4_t3_k0 0
n_w4_t3_k1 0
n_w4_t3_k2 0
n_w4_t3_k3 1.4866485715595790e+00
n_w4_t3_k4 0
n_w4_t4_k0 0
n_w4_t4_k1 0
n_w4_t4_k2 0
n_w4_t4_k3 0
n_w4_t4_k4 0
n_w4_t5_k0 0
n_w4_t5_k1 0
n_w4_t5_k2 0
n_w4_t5_k3 0
n_w4_t5_k4 0
n_w4_t6_k0 0
n_w4_t6_k1 0
n_w4_t6_k2 0
n_w4_t6_k3 0
n_w4_t6_k4 0
n_w4_t7_k0 0
n_w4_t7_k1 0
n_w4_t7_k2 0
n_w4_t7_k3 0
n_w4_t7_k4 0
n_w4_t8_k0 0
n_w4_t8_k1 0
n_w4_t8_k2 0
n_w4_t8_k3 0
n_w4_t8_k4 0
n_w4_t9_k0 0
n_w4_t9_k1 0
n_w4_t9_k2 0
n_w4_t9_k3 5.0913135468599524e-01
n_w4_t9_k4 0
n_w4_t10_k0 0
n_w4_t10_k1 0
n_w4_t10_k2 0
n_w4_t10_k3 1.8004220073754425e+01
n_w4_t10_k4 0
n_w4_t11_k0 1.7520241196979939e+01
n_w4_t11_k1 0
n_w4_t11_k2 0
n_w4_t11_k3 0
n_w4_t11_k4 0
n_w4_t12_k0 0
n_w4_t12_k1 0
n_w4_t12_k2 0
n_w4_t12_k3 0
n_w4_t12_k4 0
n_w4_t13_k0 0
n_w4_t13_k1 0
n_w4_t13_k2 0
n_w4_t13_k3 0
n_w4_t13_k4 0
n_w4_t14_k0 0
n_w4_t14_k1 0
n_w4_t14_k2 0
n_w4_t14_k3 0
n_w4_t14_k4 0
n_w4_t15_k0 0
n_w4_t15_k1 0
n_w4_t15_k2 0
n_w4_t15_k3 0
n_w4_t15_k4 0
n_w4_t16_k0 0
n_w4_t16_k1 0
n_w4_t16_k2 0
n_w4_t16_k3 0
n_w4_t16_k4 0
n_w4_t17_k0 0
n_w4_t17_k1 0
n_w4_t17_k2 0
n_w4_t17_k3 0
n_w4_t17_k4 0
n_w4_t18_k0 0
n_w4_t18_k1 0
n_w4_t18_k2 0
n_w4_t18_k3 0
n_w4_t18_k4 0
n_w4_t19_k0 0
n_w4_t19_k1 0
n_w4_t19_k2 0
n_w4_t19_k3 0
n_w4_t19_k4 0
n_w4_t20_k0 0
n_w4_t20_k1 0
n_w4_t20_k2 0
n_w4_t20_k3 0
n_w4_t20_k4 0
n_w4_t21_k0 6.4340024794563462e+01
n_w4_t21_k1 2.5189631199952585e+00
n_w4_t21_k2 5.7045270108692918e+00
n_w4_t21_k3 0
n_w4_t21_k4 0
n_w4_t22_k0 1.1793322966526131e+02
n_w4_t22_k1 1.0763996543838596e+01
n_w4_t22_k2 5.2819882886893010e+00
n_w4_t22_k3 0
n_w4_t22_k4 0
n_w4_t23_k0 9.8083714808613176e-01
n_w4_t23_k1 2.7170403361661455e+00
n_w4_t23_k2 0
n_w4_t23_k3 0
n_w4_t23_k4 0
n_w4_t24_k0 0
n_w4_t24_k1 0
n_w4_t24_k2 0
n_w4_t24_k3 0
n_w4_t24_k4 0
n_w4_t25_k0 2.2566719510917310e-01
n_w4_t25_k1 0
n_w4_t25_k2 2.0134847004414067e+00
n_w4_t25_k3 0
n_w4_t25_k4 0
n_w4_t26_k0 0
n_w4_t26_k1 0
n_w4_t26_k2 0
n_w4_t26_k3 0
n_w4_t26_k4 0
n_w4_t27_k0 0
n_w4_t27_k1 0
n_w4_t27_k2 0
n_w4_t27_k3 0
n_w4_t27_k4 0
n_w4_t28_k0 0
n_w4_t28_k1 0
n_w4_t28_k2 0
n_w4_t28_k3 0
n_w4_t28_k4 0
n_w4_t29_k0 0
n_w4_t29_k1 0
n_w4_t29_k2 0
n_w4_t29_k3 0
n_w4_t29_k4 0
n_w4_t30_k0 0
n_w4_t30_k1 0
n_w4_t30_k2 0
n_w4_t30_k3 0
n_w4_t30_k4 0
o_w0_r0 0
o_w0_r1 0
o_w0_r2 0
o_w0_r3 0
o_w0_r4 0
o_w1_r0 0
o_w1_r1 0
o_w1_r2 0
o_w1_r3 0
o_w1_r4 0
o_w2_r0 0
o_w2_r1 3.7198419383219328e+02
o_w2_r2 0
o_w2_r3 0
o_w2_r4 4.6609491657558728e+01
o_w3_r0 0
o_w3_r1 1.1366433799698043e+03
o_w3_r2 0
o_w3_r3 2.5900858704945517e+02
o_w3_r4 3.9534382369628116e+02
o_w4_r0 0
o_w4_r1 1.3837752785053619e+03
o_w4_r2 0
o_w4_r3 0
o_w4_r4 5.5005578153455997e+02
y_w0_r0 0
y_w0_r1 0
y_w0_r2 0
y_w0_r3 0
y_w0_r4 0
y_w1_r0 3.7336564672507497e-02
y_w1_r1 2.7686288283655547e-01
y_w1_r2 5.7239404800936466e-01
y_w1_r3 4.2760595199063534e-01
y_w1_r4 1.1280617682577654e+00
y_w2_r0 1.4276059519906352e+00
y_w2_r1 3.7336564672507497e-02
y_w2_r2 1.2395263181640479e+00
y_w2_r3 17
y_w2_r4 3.7336564672507497e-02
y_w3_r0 0
y_w3_r1 9.0725203585257860e-02
y_w3_r2 1.9399821344311781e+00
y_w3_r3 17
y_w3_r4 3.7336564672507497e-02
y_w4_r0 9.7354430241329462e-02
y_w4_r1 3.7336564672507497e-02
y_w4_r2 1.9026455697586706e+00
y_w4_r3 17
y_w4_r4 3.7336564672507497e-02
p_w0 0
s_w0 0
p_w1 25
s_w1 25
p_w2 25
s_w2 0
p_w3 25
s_w3 0
p_w4 25
s_w4 0
yb_w0_r0_s0 0
yb_w0_r1_s0 0
yb_w0_r2_s0 0
yb_w0_r3_s0 0
yb_w0_r4_s0 0
yb_w1_r0_s0 0
yb_w1_r1_s0 1
yb_w1_r2_s0 0
yb_w1_r3_s0 1
yb_w1_r4_s0 0
yb_w2_r0_s0 1
yb_w2_r1_s0 0
yb_w2_r2_s0 1
yb_w2_r3_s0 0
yb_w2_r4_s0 0
yb_w3_r0_s0 0
yb_w3_r1_s0 0
yb_w3_r2_s0 1
yb_w3_r3_s0 0
yb_w3_r4_s0 0
yb_w4_r0_s0 0
yb_w4_r1_s0 0
yb_w4_r2_s0 1
yb_w4_r3_s0 0
yb_w4_r4_s0 0
yb_w0_r0_s1 0
yb_w0_r1_s1 0
yb_w0_r2_s1 0
yb_w0_r3_s1 0
yb_w0_r4_s1 0
yb_w1_r0_s1 1
yb_w1_r1_s1 1
yb_w1_r2_s1 0
yb_w1_r3_s1 1
yb_w1_r4_s1 1
yb_w2_r0_s1 1
yb_w2_r1_s1 1
yb_w2_r2_s1 0
yb_w2_r3_s1 0
yb_w2_r4_s1 1
yb_w3_r0_s1 0
yb_w3_r1_s1 0
yb_w3_r2_s1 1
yb_w3_r3_s1 0
yb_w3_r4_s1 1
yb_w4_r0_s1 1
yb_w4_r1_s1 1
yb_w4_r2_s1 0
yb_w4_r3_s1 0
yb_w4_r4_s1 1
yb_w0_r0_s2 0
yb_w0_r1_s2 0
yb_w0_r2_s2 0
yb_w0_r3_s2 0
yb_w0_r4_s2 0
yb_w1_r0_s2 0
yb_w1_r1_s2 0
yb_w1_r2_s2 0
yb_w1_r3_s2 1
yb_w1_r4_s2 1
yb_w2_r0_s2 1
yb_w2_r1_s2 0
yb_w2_r2_s2 0
yb_w2_r3_s2 0
yb_w2_r4_s2 0
yb_w3_r0_s2 0
yb_w3_r1_s2 1
yb_w3_r2_s2 1
yb_w3_r3_s2 0
yb_w3_r4_s2 0
yb_w4_r0_s2 0
yb_w4_r1_s2 0
yb_w4_r2_s2 1
yb_w4_r3_s2 0
yb_w4_r4_s2 0
yb_w0_r0_s3 0
yb_w0_r1_s3 0
yb_w0_r2_s3 0
yb_w0_r3_s3 0
yb_w0_r4_s3 0
yb_w1_r0_s3 0
yb_w1_r1_s3 0
yb_w1_r2_s3 1
yb_w1_r3_s3 0
yb_w1_r4_s3 0
yb_w2_r0_s3 0
yb_w2_r1_s3 0
yb_w2_r2_s3 0
yb_w2_r3_s3 0
yb_w2_r4_s3 0
yb_w3_r0_s3 0
yb_w3_r1_s3 0
yb_w3_r2_s3 1
yb_w3_r3_s3 0
yb_w3_r4_s3 0
yb_w4_r0_s3 0
yb_w4_r1_s3 0
yb_w4_r2_s3 1
yb_w4_r3_s3 0
yb_w4_r4_s3 0
yb_w0_r0_s4 0
yb_w0_r1_s4 0
yb_w0_r2_s4 0
yb_w0_r3_s4 0
yb_w0_r4_s4 0
yb_w1_r0_s4 0
yb_w1_r1_s4 0
yb_w1_r2_s4 0
yb_w1_r3_s4 1
yb_w1_r4_s4 0
yb_w2_r0_s4 1
yb_w2_r1_s4 0
yb_w2_r2_s4 0
yb_w2_r3_s4 0
yb_w2_r4_s4 0
yb_w3_r0_s4 0
yb_w3_r1_s4 0
yb_w3_r2_s4 0
yb_w3_r3_s4 0
yb_w3_r4_s4 0
yb_w4_r0_s4 1
yb_w4_r1_s4 0
yb_w4_r2_s4 0
yb_w4_r3_s4 0
yb_w4_r4_s4 0
X(s0,w0,r0) 0
X(s0,w0,r1) 0
X(s0,w0,r2) 0
X(s0,w0,r3) 0
X(s0,w0,r4) 0
X(s0,w1,r0) 0
X(s0,w1,r1) 2.3952631816404799e-01
X(s0,w1,r2) 0
X(s0,w1,r3) 2.3952631816404799e-01
X(s0,w1,r4) 0
X(s0,w2,r0) 2.3952631816404799e-01
X(s0,w2,r1) 0
X(s0,w2,r2) 2.3952631816404799e-01
X(s0,w2,r3) 0
X(s0,w2,r4) 0
X(s0,w3,r0) 0
X(s0,w3,r1) 0
X(s0,w3,r2) 2.3952631816404799e-01
X(s0,w3,r3) 0
X(s0,w3,r4) 0
X(s0,w4,r0) 0
X(s0,w4,r1) 0
X(s0,w4,r2) 2.3952631816404799e-01
X(s0,w4,r3) 0
X(s0,w4,r4) 0
X(s1,w0,r0) 0
X(s1,w0,r1) 0
X(s1,w0,r2) 0
X(s1,w0,r3) 0
X(s1,w0,r4) 0
X(s1,w1,r0) 3.7336564672507497e-02
X(s1,w1,r1) 3.7336564672507497e-02
X(s1,w1,r2) 0
X(s1,w1,r3) 3.7336564672507497e-02
X(s1,w1,r4) 3.7336564672507497e-02
X(s1,w2,r0) 3.7336564672507497e-02
X(s1,w2,r1) 3.7336564672507497e-02
X(s1,w2,r2) 0
X(s1,w2,r3) 0
X(s1,w2,r4) 3.7336564672507497e-02
X(s1,w3,r0) 0
X(s1,w3,r1) 0
X(s1,w3,r2) 3.7336564672507497e-02
X(s1,w3,r3) 0
X(s1,w3,r4) 3.7336564672507497e-02
X(s1,w4,r0) 3.7336564672507497e-02
X(s1,w4,r1) 3.7336564672507497e-02
X(s1,w4,r2) 0
X(s1,w4,r3) 0
X(s1,w4,r4) 3.7336564672507497e-02
X(s2,w0,r0) 0
X(s2,w0,r1) 0
X(s2,w0,r2) 0
X(s2,w0,r3) 0
X(s2,w0,r4) 0
X(s2,w1,r0) 0
X(s2,w1,r1) 0
X(s2,w1,r2) 0
X(s2,w1,r3) 9.0725203585257860e-02
X(s2,w1,r4) 9.0725203585257860e-02
X(s2,w2,r0) 9.0725203585257860e-02
X(s2,w2,r1) 0
X(s2,w2,r2) 0
X(s2,w2,r3) 0
X(s2,w2,r4) 0
X(s2,w3,r0) 0
X(s2,w3,r1) 9.0725203585257860e-02
X(s2,w3,r2) 9.0725203585257860e-02
X(s2,w3,r3) 0
X(s2,w3,r4) 0
X(s2,w4,r0) 0
X(s2,w4,r1) 0
X(s2,w4,r2) 9.0725203585257860e-02
X(s2,w4,r3) 0
X(s2,w4,r4) 0
X(s3,w0,r0) 0
X(s3,w0,r1) 0
X(s3,w0,r2) 0
X(s3,w0,r3) 0
X(s3,w0,r4) 0
X(s3,w1,r0) 0
X(s3,w1,r1) 0
X(s3,w1,r2) 5.7239404800936466e-01
X(s3,w1,r3) 0
X(s3,w1,r4) 0
X(s3,w2,r0) 0
X(s3,w2,r1) 0
X(s3,w2,r2) 0
X(s3,w2,r3) 0
X(s3,w2,r4) 0
X(s3,w3,r0) 0
X(s3,w3,r1) 0
X(s3,w3,r2) 5.7239404800936466e-01
X(s3,w3,r3) 0
X(s3,w3,r4) 0
X(s3,w4,r0) 0
X(s3,w4,r1) 0
X(s3,w4,r2) 5.7239404800936466e-01
X(s3,w4,r3) 0
X(s3,w4,r4) 0
X(s4,w0,r0) 0
X(s4,w0,r1) 0
X(s4,w0,r2) 0
X(s4,w0,r3) 0
X(s4,w0,r4) 0
X(s4,w1,r0) 0
X(s4,w1,r1) 0
X(s4,w1,r2) 0
X(s4,w1,r3) 6.0017865568821965e-02
X(s4,w1,r4) 0
X(s4,w2,r0) 6.0017865568821965e-02
X(s4,w2,r1) 0
X(s4,w2,r2) 0
X(s4,w2,r3) 0
X(s4,w2,r4) 0
X(s4,w3,r0) 0
X(s4,w3,r1) 0
X(s4,w3,r2) 0
X(s4,w3,r3) 0
X(s4,w3,r4) 0
X(s4,w4,r0) 6.0017865568821965e-02
X(s4,w4,r1) 0
X(s4,w4,r2) 0
X(s4,w4,r3) 0
X(s4,w4,r4) 0
